proyfinal/src/viki/013/experimentInOfficeAgust.take6.output/b3be4dad-f037-4373-8c05-71f31676470d.als.dat
{'cnf.clauses': '118081',
 'cnf.totvars': '69608',
 'conflict literals': '2',
 'conflicts': '3',
 'decisions': '874',
 'memused.mb': '16.72',
 'outcome': 'UNSAT',
 'propagations': '20856',
 'restarts': '1',
 'solver.msecs': 33,
 'task.msecs': 79}
