proyfinal/src/viki/013/experimentInOfficeAgust.take6.output/b3be4dad-f037-4373-8c05-71f31676470d.als.out
Reading from standard input... Use '--help' for help.
============================[ Problem Statistics ]=============================
|                                                                             |
|  Number of variables:         69608                                         |
|  Number of clauses:          118081                                         |
|  Parse time:                   0.02 s                                       |
|                                                                             |
============================[ Search Statistics ]==============================
| Conflicts |          ORIGINAL         |          LEARNT          | Progress |
|           |    Vars  Clauses Literals |    Limit  Clauses Lit/Cl |          |
===============================================================================
===============================================================================
restarts              : 1
conflicts             : 3              (90 /sec)
decisions             : 874            (0.00 % random) (26354 /sec)
propagations          : 20856          (628875 /sec)
conflict literals     : 2              (0.00 % deleted)
Memory used           : 16.72 MB
CPU time              : 0.033164 s

UNSATISFIABLE
